sat
(:max-memory        18.58
 :memory            17.62
 :num-allocs        91685188
 :rlimit-count      113912
 :sls-constraints   1312
 :sls-ddfw-flips    46736.00
 :sls-ddfw-reinits  3
 :sls-ddfw-restarts 11
 :sls-ddfw-shifts   35075.00
 :time              0.09
 :total-time        0.10)
